p cnf 144 717
-1 -20 0
-1 -21 0
-1 -22 0
-1 -23 0
-1 -24 0
-2 -19 0
-2 -21 0
-2 -22 0
-2 -23 0
-2 -24 0
-3 -19 0
-3 -20 0
-3 -22 0
-3 -23 0
-3 -24 0
-4 -19 0
-4 -20 0
-4 -21 0
-4 -23 0
-4 -24 0
-5 -19 0
-5 -20 0
-5 -21 0
-5 -22 0
-5 -24 0
-6 -19 0
-6 -20 0
-6 -21 0
-6 -22 0
-6 -23 0
-1 -26 0
-1 -27 0
-1 -28 0
-1 -29 0
-1 -30 0
-2 -25 0
-2 -27 0
-2 -28 0
-2 -29 0
-2 -30 0
-3 -25 0
-3 -26 0
-3 -28 0
-3 -29 0
-3 -30 0
-4 -25 0
-4 -26 0
-4 -27 0
-4 -29 0
-4 -30 0
-5 -25 0
-5 -26 0
-5 -27 0
-5 -28 0
-5 -30 0
-6 -25 0
-6 -26 0
-6 -27 0
-6 -28 0
-6 -29 0
-1 -38 0
-1 -39 0
-1 -40 0
-1 -41 0
-1 -42 0
-2 -37 0
-2 -39 0
-2 -40 0
-2 -41 0
-2 -42 0
-3 -37 0
-3 -38 0
-3 -40 0
-3 -41 0
-3 -42 0
-4 -37 0
-4 -38 0
-4 -39 0
-4 -41 0
-4 -42 0
-5 -37 0
-5 -38 0
-5 -39 0
-5 -40 0
-5 -42 0
-6 -37 0
-6 -38 0
-6 -39 0
-6 -40 0
-6 -41 0
-1 -50 0
-1 -51 0
-1 -52 0
-1 -53 0
-1 -54 0
-2 -49 0
-2 -51 0
-2 -52 0
-2 -53 0
-2 -54 0
-3 -49 0
-3 -50 0
-3 -52 0
-3 -53 0
-3 -54 0
-4 -49 0
-4 -50 0
-4 -51 0
-4 -53 0
-4 -54 0
-5 -49 0
-5 -50 0
-5 -51 0
-5 -52 0
-5 -54 0
-6 -49 0
-6 -50 0
-6 -51 0
-6 -52 0
-6 -53 0
-7 -20 0
-7 -21 0
-7 -22 0
-7 -23 0
-7 -24 0
-8 -19 0
-8 -21 0
-8 -22 0
-8 -23 0
-8 -24 0
-9 -19 0
-9 -20 0
-9 -22 0
-9 -23 0
-9 -24 0
-10 -19 0
-10 -20 0
-10 -21 0
-10 -23 0
-10 -24 0
-11 -19 0
-11 -20 0
-11 -21 0
-11 -22 0
-11 -24 0
-12 -19 0
-12 -20 0
-12 -21 0
-12 -22 0
-12 -23 0
-13 -20 0
-13 -21 0
-13 -22 0
-13 -23 0
-13 -24 0
-14 -19 0
-14 -21 0
-14 -22 0
-14 -23 0
-14 -24 0
-15 -19 0
-15 -20 0
-15 -22 0
-15 -23 0
-15 -24 0
-16 -19 0
-16 -20 0
-16 -21 0
-16 -23 0
-16 -24 0
-17 -19 0
-17 -20 0
-17 -21 0
-17 -22 0
-17 -24 0
-18 -19 0
-18 -20 0
-18 -21 0
-18 -22 0
-18 -23 0
-19 -32 0
-19 -33 0
-19 -34 0
-19 -35 0
-19 -36 0
-20 -31 0
-20 -33 0
-20 -34 0
-20 -35 0
-20 -36 0
-21 -31 0
-21 -32 0
-21 -34 0
-21 -35 0
-21 -36 0
-22 -31 0
-22 -32 0
-22 -33 0
-22 -35 0
-22 -36 0
-23 -31 0
-23 -32 0
-23 -33 0
-23 -34 0
-23 -36 0
-24 -31 0
-24 -32 0
-24 -33 0
-24 -34 0
-24 -35 0
-19 -38 0
-19 -39 0
-19 -40 0
-19 -41 0
-19 -42 0
-20 -37 0
-20 -39 0
-20 -40 0
-20 -41 0
-20 -42 0
-21 -37 0
-21 -38 0
-21 -40 0
-21 -41 0
-21 -42 0
-22 -37 0
-22 -38 0
-22 -39 0
-22 -41 0
-22 -42 0
-23 -37 0
-23 -38 0
-23 -39 0
-23 -40 0
-23 -42 0
-24 -37 0
-24 -38 0
-24 -39 0
-24 -40 0
-24 -41 0
-25 -38 0
-25 -39 0
-25 -40 0
-25 -41 0
-25 -42 0
-26 -37 0
-26 -39 0
-26 -40 0
-26 -41 0
-26 -42 0
-27 -37 0
-27 -38 0
-27 -40 0
-27 -41 0
-27 -42 0
-28 -37 0
-28 -38 0
-28 -39 0
-28 -41 0
-28 -42 0
-29 -37 0
-29 -38 0
-29 -39 0
-29 -40 0
-29 -42 0
-30 -37 0
-30 -38 0
-30 -39 0
-30 -40 0
-30 -41 0
-31 -44 0
-31 -45 0
-31 -46 0
-31 -47 0
-31 -48 0
-32 -43 0
-32 -45 0
-32 -46 0
-32 -47 0
-32 -48 0
-33 -43 0
-33 -44 0
-33 -46 0
-33 -47 0
-33 -48 0
-34 -43 0
-34 -44 0
-34 -45 0
-34 -47 0
-34 -48 0
-35 -43 0
-35 -44 0
-35 -45 0
-35 -46 0
-35 -48 0
-36 -43 0
-36 -44 0
-36 -45 0
-36 -46 0
-36 -47 0
-31 -50 0
-31 -51 0
-31 -52 0
-31 -53 0
-31 -54 0
-32 -49 0
-32 -51 0
-32 -52 0
-32 -53 0
-32 -54 0
-33 -49 0
-33 -50 0
-33 -52 0
-33 -53 0
-33 -54 0
-34 -49 0
-34 -50 0
-34 -51 0
-34 -53 0
-34 -54 0
-35 -49 0
-35 -50 0
-35 -51 0
-35 -52 0
-35 -54 0
-36 -49 0
-36 -50 0
-36 -51 0
-36 -52 0
-36 -53 0
-37 -50 0
-37 -51 0
-37 -52 0
-37 -53 0
-37 -54 0
-38 -49 0
-38 -51 0
-38 -52 0
-38 -53 0
-38 -54 0
-39 -49 0
-39 -50 0
-39 -52 0
-39 -53 0
-39 -54 0
-40 -49 0
-40 -50 0
-40 -51 0
-40 -53 0
-40 -54 0
-41 -49 0
-41 -50 0
-41 -51 0
-41 -52 0
-41 -54 0
-42 -49 0
-42 -50 0
-42 -51 0
-42 -52 0
-42 -53 0
1 7 13 19 25 31 37 43 49 0 
2 8 14 20 26 32 38 44 50 0 
3 9 15 21 27 33 39 45 51 0 
4 10 16 22 28 34 40 46 52 0 
5 11 17 23 29 35 41 47 53 0 
6 12 18 24 30 36 42 48 54 0 
-2 -1 0
-3 -1 0
-4 -1 0
-5 -1 0
-6 -1 0
-3 -2 0
-4 -2 0
-5 -2 0
-6 -2 0
-4 -3 0
-5 -3 0
-6 -3 0
-5 -4 0
-6 -4 0
-6 -5 0
-8 -7 0
-9 -7 0
-10 -7 0
-11 -7 0
-12 -7 0
-9 -8 0
-10 -8 0
-11 -8 0
-12 -8 0
-10 -9 0
-11 -9 0
-12 -9 0
-11 -10 0
-12 -10 0
-12 -11 0
-14 -13 0
-15 -13 0
-16 -13 0
-17 -13 0
-18 -13 0
-15 -14 0
-16 -14 0
-17 -14 0
-18 -14 0
-16 -15 0
-17 -15 0
-18 -15 0
-17 -16 0
-18 -16 0
-18 -17 0
-20 -19 0
-21 -19 0
-22 -19 0
-23 -19 0
-24 -19 0
-21 -20 0
-22 -20 0
-23 -20 0
-24 -20 0
-22 -21 0
-23 -21 0
-24 -21 0
-23 -22 0
-24 -22 0
-24 -23 0
-26 -25 0
-27 -25 0
-28 -25 0
-29 -25 0
-30 -25 0
-27 -26 0
-28 -26 0
-29 -26 0
-30 -26 0
-28 -27 0
-29 -27 0
-30 -27 0
-29 -28 0
-30 -28 0
-30 -29 0
-32 -31 0
-33 -31 0
-34 -31 0
-35 -31 0
-36 -31 0
-33 -32 0
-34 -32 0
-35 -32 0
-36 -32 0
-34 -33 0
-35 -33 0
-36 -33 0
-35 -34 0
-36 -34 0
-36 -35 0
-38 -37 0
-39 -37 0
-40 -37 0
-41 -37 0
-42 -37 0
-39 -38 0
-40 -38 0
-41 -38 0
-42 -38 0
-40 -39 0
-41 -39 0
-42 -39 0
-41 -40 0
-42 -40 0
-42 -41 0
-44 -43 0
-45 -43 0
-46 -43 0
-47 -43 0
-48 -43 0
-45 -44 0
-46 -44 0
-47 -44 0
-48 -44 0
-46 -45 0
-47 -45 0
-48 -45 0
-47 -46 0
-48 -46 0
-48 -47 0
-50 -49 0
-51 -49 0
-52 -49 0
-53 -49 0
-54 -49 0
-51 -50 0
-52 -50 0
-53 -50 0
-54 -50 0
-52 -51 0
-53 -51 0
-54 -51 0
-53 -52 0
-54 -52 0
-54 -53 0
-1 -7 0
-2 -8 0
-3 -9 0
-4 -10 0
-5 -11 0
-6 -12 0
-1 -13 0
-2 -14 0
-3 -15 0
-4 -16 0
-5 -17 0
-6 -18 0
-1 -19 0
-2 -20 0
-3 -21 0
-4 -22 0
-5 -23 0
-6 -24 0
-1 -25 0
-2 -26 0
-3 -27 0
-4 -28 0
-5 -29 0
-6 -30 0
-1 -31 0
-2 -32 0
-3 -33 0
-4 -34 0
-5 -35 0
-6 -36 0
-1 -37 0
-2 -38 0
-3 -39 0
-4 -40 0
-5 -41 0
-6 -42 0
-1 -43 0
-2 -44 0
-3 -45 0
-4 -46 0
-5 -47 0
-6 -48 0
-1 -49 0
-2 -50 0
-3 -51 0
-4 -52 0
-5 -53 0
-6 -54 0
-7 -13 0
-8 -14 0
-9 -15 0
-10 -16 0
-11 -17 0
-12 -18 0
-7 -19 0
-8 -20 0
-9 -21 0
-10 -22 0
-11 -23 0
-12 -24 0
-7 -25 0
-8 -26 0
-9 -27 0
-10 -28 0
-11 -29 0
-12 -30 0
-7 -31 0
-8 -32 0
-9 -33 0
-10 -34 0
-11 -35 0
-12 -36 0
-7 -37 0
-8 -38 0
-9 -39 0
-10 -40 0
-11 -41 0
-12 -42 0
-7 -43 0
-8 -44 0
-9 -45 0
-10 -46 0
-11 -47 0
-12 -48 0
-7 -49 0
-8 -50 0
-9 -51 0
-10 -52 0
-11 -53 0
-12 -54 0
-13 -19 0
-14 -20 0
-15 -21 0
-16 -22 0
-17 -23 0
-18 -24 0
-13 -25 0
-14 -26 0
-15 -27 0
-16 -28 0
-17 -29 0
-18 -30 0
-13 -31 0
-14 -32 0
-15 -33 0
-16 -34 0
-17 -35 0
-18 -36 0
-13 -37 0
-14 -38 0
-15 -39 0
-16 -40 0
-17 -41 0
-18 -42 0
-13 -43 0
-14 -44 0
-15 -45 0
-16 -46 0
-17 -47 0
-18 -48 0
-13 -49 0
-14 -50 0
-15 -51 0
-16 -52 0
-17 -53 0
-18 -54 0
-19 -25 0
-20 -26 0
-21 -27 0
-22 -28 0
-23 -29 0
-24 -30 0
-19 -31 0
-20 -32 0
-21 -33 0
-22 -34 0
-23 -35 0
-24 -36 0
-19 -37 0
-20 -38 0
-21 -39 0
-22 -40 0
-23 -41 0
-24 -42 0
-19 -43 0
-20 -44 0
-21 -45 0
-22 -46 0
-23 -47 0
-24 -48 0
-19 -49 0
-20 -50 0
-21 -51 0
-22 -52 0
-23 -53 0
-24 -54 0
-25 -31 0
-26 -32 0
-27 -33 0
-28 -34 0
-29 -35 0
-30 -36 0
-25 -37 0
-26 -38 0
-27 -39 0
-28 -40 0
-29 -41 0
-30 -42 0
-25 -43 0
-26 -44 0
-27 -45 0
-28 -46 0
-29 -47 0
-30 -48 0
-25 -49 0
-26 -50 0
-27 -51 0
-28 -52 0
-29 -53 0
-30 -54 0
-31 -37 0
-32 -38 0
-33 -39 0
-34 -40 0
-35 -41 0
-36 -42 0
-31 -43 0
-32 -44 0
-33 -45 0
-34 -46 0
-35 -47 0
-36 -48 0
-31 -49 0
-32 -50 0
-33 -51 0
-34 -52 0
-35 -53 0
-36 -54 0
-37 -43 0
-38 -44 0
-39 -45 0
-40 -46 0
-41 -47 0
-42 -48 0
-37 -49 0
-38 -50 0
-39 -51 0
-40 -52 0
-41 -53 0
-42 -54 0
-43 -49 0
-44 -50 0
-45 -51 0
-46 -52 0
-47 -53 0
-48 -54 0
